50

100 11 307
100 9 304
99 42 298
96 27 354
96 7 345
93 15 360
91 32 305
90 31 299
90 8 347
87 16 341
84 12 259
83 42 265
80 10 332
80 38 304
80 18 254
75 9 299
74 7 297
72 17 314
72 4 314
71 1 319
71 2 254
70 10 260
69 9 345
66 8 355
65 6 320
63 25 344
60 1 242
58 19 340
57 13 313
56 4 287
54 4 345
54 18 338
53 27 344
53 9 290
53 7 301
51 7 253
51 18 181
49 13 345
46 14 357
43 5 258
40 8 184
39 7 206
38 5 254
37 10 322
37 14 168
34 14 106
33 2 225
33 15 298
31 8 309
31 9 260
